Minimize
  - 10 y_1 - 3 y_2 - 13 y_3 - 19 y_4 - 22 y_5 - 10 y_6 - 4 y_7 - 9 y_8
   - 12 y_9 + 14 x_0_2 + 53 x_0_3 + 29 x_1_2 + 49 x_1_7 + 7 x_1_8
   + 28 x_2_7 + 46 x_3_4 + 84 x_3_5 + 77 x_3_9 + 57 x_4_6 + 53 x_4_8
   + 89 x_5_2 + 50 x_5_6 + 33 x_7_9 + 33 x_7_9 + 33 x_7_9 + 33 x_7_9
   + 33 x_7_9 + 33 x_7_9 + 33 x_7_9 + 33 x_7_9 + 33 x_7_9 + 33 x_7_9
   + 33 x_7_9 + 33 x_7_9 + 33 x_7_9 + 33 x_7_9 + 33 x_7_9 + 33 x_7_9
   + 33 x_7_9 + 33 x_7_9 + 33 x_7_9 + 33 x_7_9 + 33 x_7_9 + 33 x_7_9
   + 33 x_7_9 + 33 x_7_9 + 33 x_7_9 + 33 x_7_9 + 33 x_7_9 + 33 x_7_9
   + 33 x_7_9 + 33 x_7_9 + 33 x_7_9 + 33 x_7_9 + 33 x_7_9 + 33 x_7_9
   + 33 x_7_9 + 33 x_7_9 + 33 x_7_9 + 33 x_7_9 + 33 x_7_9 + 33 x_7_9
   + 33 x_7_9 + 33 x_7_9 + 33 x_7_9 + 33 x_7_9 + 33 x_7_9 + 33 x_7_9
   + 33 x_7_9 + 33 x_7_9 + 33 x_7_9 + 33 x_7_9 + 33 x_7_9 + 33 x_7_9
   + 33 x_7_9 + 33 x_7_9 + 33 x_7_9 + 33 x_7_9 + 33 x_7_9 + 33 x_7_9
   + 33 x_7_9 + 33 x_7_9 + 33 x_7_9 + 33 x_7_9 + 33 x_7_9 + 33 x_7_9
   + 33 x_7_9 + 33 x_7_9 + 33 x_7_9 + 33 x_7_9 + 33 x_7_9 + 33 x_7_9
   + 33 x_7_9 + 33 x_7_9 + 33 x_7_9 + 33 x_7_9 + 33 x_7_9 + 33 x_7_9
   + 33 x_7_9 + 33 x_7_9 + 33 x_7_9 + 33 x_7_9 + 33 x_7_9 + 33 x_7_9
   + 33 x_7_9 + 33 x_7_9 + 33 x_7_9 + 33 x_7_9 + 33 x_7_9 + 33 x_7_9
   + 33 x_7_9 + 33 x_7_9 + 33 x_7_9 + 33 x_7_9 + 33 x_7_9 + 33 x_7_9
   + 33 x_7_9 + 33 x_7_9 + 33 x_7_9 + 33 x_7_9 + 33 x_7_9 + 33 x_7_9
   + 33 x_7_9 + 33 x_7_9 + 33 x_7_9 + 33 x_7_9 + 33 x_7_9 + 33 x_7_9
   + 33 x_7_9 + 33 x_7_9 + 33 x_7_9 + 33 x_7_9 + 33 x_7_9 + 33 x_7_9
   + 33 x_7_9 + 33 x_7_9 + 33 x_7_9 + 33 x_7_9 + 33 x_7_9 + 33 x_7_9
   + 33 x_7_9 + 33 x_7_9 + 33 x_7_9 + 33 x_7_9 + 33 x_7_9 + 33 x_7_9
   + 33 x_7_9 + 33 x_7_9 + 33 x_7_9 + 102 Constant
Subject To
 c_0: y_0 = 1
 c_1_0: y_0 >= 1
 c_1_1: y_1 >= 1
 c_1_2: y_2 >= 1
 c_1_3: y_3 >= 1
 c_1_4: y_4 >= 1
 c_1_5: y_5 >= 1
 c_1_6: y_6 >= 1
 c_1_7: y_7 >= 1
 c_1_8: y_8 >= 1
 c_1_9: y_9 >= 1
 c_2_0: - 2 y_0 + x_0_2 + x_0_3 = 0
 c_2_1: - 2 y_1 + x_1_2 + x_1_7 + x_1_8 = 0
 c_2_2: - 2 y_2 + x_0_2 + x_1_2 + x_2_7 + x_5_2 = 0
 c_2_3: - 2 y_3 + x_0_3 + x_3_4 + x_3_5 + x_3_9 = 0
 c_2_4: - 2 y_4 + x_3_4 + x_4_6 + x_4_8 = 0
 c_2_5: - 2 y_5 + x_3_5 + x_5_2 + x_5_6 = 0
 c_2_6: - 2 y_6 + x_4_6 + x_5_6 = 0
 c_2_7: - 2 y_7 + x_1_7 + x_2_7 + 127 x_7_9 = 0
 c_2_8: - 2 y_8 + x_1_8 + x_4_8 = 0
 c_2_9: - 2 y_9 + x_3_9 + 127 x_7_9 = 0
Bounds
 Constant = 1
Binaries
 y_0 y_1 y_2 y_3 y_4 y_5 y_6 y_7 y_8 y_9 x_0_2 x_0_3 x_1_2 x_1_7 x_1_8
 x_2_7 x_3_4 x_3_5 x_3_9 x_4_6 x_4_8 x_5_2 x_5_6 x_7_9 x_7_9 x_7_9 x_7_9
 x_7_9 x_7_9 x_7_9 x_7_9 x_7_9 x_7_9 x_7_9 x_7_9 x_7_9 x_7_9 x_7_9 x_7_9
 x_7_9 x_7_9 x_7_9 x_7_9 x_7_9 x_7_9 x_7_9 x_7_9 x_7_9 x_7_9 x_7_9 x_7_9
 x_7_9 x_7_9 x_7_9 x_7_9 x_7_9 x_7_9 x_7_9 x_7_9 x_7_9 x_7_9 x_7_9 x_7_9
 x_7_9 x_7_9 x_7_9 x_7_9 x_7_9 x_7_9 x_7_9 x_7_9 x_7_9 x_7_9 x_7_9 x_7_9
 x_7_9 x_7_9 x_7_9 x_7_9 x_7_9 x_7_9 x_7_9 x_7_9 x_7_9 x_7_9 x_7_9 x_7_9
 x_7_9 x_7_9 x_7_9 x_7_9 x_7_9 x_7_9 x_7_9 x_7_9 x_7_9 x_7_9 x_7_9 x_7_9
 x_7_9 x_7_9 x_7_9 x_7_9 x_7_9 x_7_9 x_7_9 x_7_9 x_7_9 x_7_9 x_7_9 x_7_9
 x_7_9 x_7_9 x_7_9 x_7_9 x_7_9 x_7_9 x_7_9 x_7_9 x_7_9 x_7_9 x_7_9 x_7_9
 x_7_9 x_7_9 x_7_9 x_7_9 x_7_9 x_7_9 x_7_9 x_7_9 x_7_9 x_7_9 x_7_9 x_7_9
 x_7_9 x_7_9 x_7_9 x_7_9 x_7_9 x_7_9 x_7_9 x_7_9 x_7_9 x_7_9 x_7_9 x_7_9
 x_7_9 x_7_9 x_7_9
End
